! NOTE THE MAJOR DIFFERENCE WITH RESPECT TO HYDROGEN ABSORPTION (1 MOLECULE):
! in this case, we need to perform a constrained optimization, i.e. the carbon atoms
! are not free to move along the xy plane -> introducing 2 molecules of H2 close together
! implicitly made favourable a conformation for the carbon layers in which the top plane shifted
! so to ABB stacking. This was not necessary for the single molecule simulation.


&control
   title           = "9H2_absorption_C" 
   restart_mode    = 'from_scratch'
   calculation     = 'vc-relax' 
   outdir          = '../../results/server/9h2_abs' 
   pseudo_dir      = '../../potentials' 
   prefix          = '9H2abs_C' 
    tstress         = .true 
    tprnfor         = .true 
/
&system
    a     =  4.23342e+00
    ibrav = 0
    nat   = 42
    ntyp  = 2
    ecutwfc = 40.0,
    ecutrho = 400.0,
    input_dft='LDA',
    occupations='smearing',
    smearing='gaussian',
    degauss=0.01,
/
&electrons
    !electron_maxstep=100
    mixing_mode='local-TF'
    mixing_beta=0.05
    !diagonalization="cg"
    !conv_thr=1e-6
/
&ions
/
&cell
    !cell_factor=4
    !cell_dofree='ibrav'
/
ATOMIC_SPECIES
    C 12.011 C.pz-n-rrkjus_psl.0.1.UPF !ultrasoft potential
    H  1.00784  H.pz-rrkjus_psl.0.1.UPF

CELL_PARAMETERS (alat=  8.00000437)
   1.177463198   0.009468537   0.045871762
  -0.591407724   1.005540709  -0.164858575
   0.165363897  -0.429067291   2.815095806

ATOMIC_POSITIONS (crystal)
C            -0.0869034986       -0.0665291818        0.1629252635
C            -0.0494087370        0.1026839440        0.3760359263
C             0.0553779704        0.0478303432        0.9130199543
C             0.0797399175        0.2659405469        0.1621901592
C             0.2832208070        0.2674001529        0.3746224049
C             0.2220825907        0.3808301547        0.9125773016
C             0.4127273491       -0.0662392781        0.1631732961
C             0.4497743038        0.1031781601        0.3772221179
C             0.5554309902        0.0455794610        0.9131042344
C             0.5789316611        0.2660233042        0.1627931278
C             0.7835450215        0.2696464140        0.3769966428
C             0.7222882063        0.3791902285        0.9135517002
C            -0.0865877428        0.4348077295        0.1648209510
C            -0.0509797831        0.5994734646        0.3732795648
C             0.0554015339        0.5483391123        0.9133748660
C             0.0798883602        0.7664440927        0.1620756455
C             0.2832990252        0.7701982074        0.3783567189
C             0.2220648501        0.8810989820        0.9128208373
C             0.4128138660        0.4334127830        0.1630716986
C             0.4498961463        0.6025763600        0.3770608452
C             0.5557650605        0.5456916070        0.9134061275
C             0.5795415101        0.7661912682        0.1622949084
C             0.7835519010        0.7698925639        0.3778431205
C             0.7226527551        0.8787283359        0.9130320084
H             0.5980728442        1.0945841981        0.5489245786
H             0.7338806600        1.0749312937        0.5625642817
H             0.4279196362        0.6892251179        0.7683603973
H             0.3007965339        0.5101464906        0.7679814278
H             0.7975993350        0.6145992856        0.7619884448
H             0.9219649020        0.5589789227        0.7603214505
H             0.3065869728        0.0058846651        0.7622360105
H             0.4247347400        0.1831308934        0.7588463241
H             0.1690837688        0.5547664625        0.5771531318
H             0.0770427176        0.6610033919        0.5832832051
H             0.9637133311        0.7857183861        0.5863515121
H             0.7232564025        0.6552474240        0.5796929753
H             0.0760907162        0.0142430329        0.5790495056
H             0.1779404670        0.2129434385        0.5815049185
H             0.9271369857        1.0756639401        0.7623924143
H             0.7903547565        1.1111327944        0.7596134555
H             0.2951358311        0.4478233390        0.5833904073
H             0.5270409966        0.5504136590        0.5786995596

K_POINTS {automatic}
    1 1 1 0 0 0 