! NOTE THE MAJOR DIFFERENCE WITH RESPECT TO HYDROGEN ABSORPTION (1 MOLECULE):
! in this case, we need to perform a constrained optimization, i.e. the carbon atoms
! are not free to move along the xy plane -> introducing 2 molecules of H2 close together
! implicitly made favourable a conformation for the carbon layers in which the top plane shifted
! so to ABB stacking. This was not necessary for the single molecule simulation.


&control
   title           = "9H2_absorption_C" 
   restart_mode    = 'from_scratch'
   calculation     = 'vc-relax' 
   outdir          = '../../results/server/9h2_abs' 
   pseudo_dir      = '../../potentials' 
   prefix          = '9H2abs_C' 
    tstress         = .true 
    tprnfor         = .true 
/
&system
    a     =  4.23342e+00
    ibrav = 0
    nat   = 42
    ntyp  = 2
    ecutwfc = 40.0,
    ecutrho = 400.0,
    input_dft='LDA',
    occupations='smearing',
    smearing='gaussian',
    degauss=0.01,
/
&electrons
    !electron_maxstep=100
    mixing_mode='local-TF'
    mixing_beta=0.05
    !diagonalization="cg"
    !conv_thr=1e-6
/
&ions
/
&cell
    !cell_factor=4
    !cell_dofree='ibrav'
/
ATOMIC_SPECIES
    C 12.011 C.pz-n-rrkjus_psl.0.1.UPF !ultrasoft potential
    H  1.00784  H.pz-rrkjus_psl.0.1.UPF

CELL_PARAMETERS (alat=  8.00000437)
   1.177266897   0.008074495   0.035360816
  -0.590984322   1.006486412  -0.160728682
   0.182102055  -0.432570127   2.795751809

ATOMIC_POSITIONS (crystal)
C            -0.0719189842       -0.0665562379        0.1640669898
C            -0.0328590750        0.1032177112        0.3784644815
C             0.0647914622        0.0494688455        0.9140122830
C             0.0942498051        0.2654855518        0.1630076604
C             0.3019470058        0.2720611267        0.3814052399
C             0.2312871886        0.3823474719        0.9139105554
C             0.4283151846       -0.0671591634        0.1635821908
C             0.4684205346        0.1040655840        0.3800331510
C             0.5643480481        0.0461842580        0.9129460515
C             0.5951120813        0.2654073991        0.1630189712
C             0.8009847095        0.2679097250        0.3763309320
C             0.7309142487        0.3794518442        0.9133375319
C            -0.0719175970        0.4323379463        0.1631300889
C            -0.0319168944        0.6040349098        0.3799691008
C             0.0645329381        0.5492517562        0.9136066290
C             0.0946908150        0.7653928025        0.1628668403
C             0.3019299907        0.7716974786        0.3810047333
C             0.2316693116        0.8826885525        0.9136646570
C             0.4284310520        0.4342721842        0.1654388005
C             0.4676501041        0.6004591006        0.3757750663
C             0.5642240587        0.5466875899        0.9141540637
C             0.5949420073        0.7661463493        0.1630372037
C             0.8009739880        0.7703934697        0.3797119964
C             0.7309119923        0.8789840611        0.9127566071
H             0.7374382824        1.2092375740        0.5818995401
H             0.6359884245        1.0128767916        0.5817912024
H             0.4354887861        0.6695258636        0.7598850936
H             0.2944922286        0.4970157418        0.7587107634
H             0.8130348555        0.6336134342        0.7673684225
H             0.9259668834        0.5638628945        0.7668637929
H             0.3071082928        0.0027393421        0.7594451401
H             0.4280614617        0.1798792124        0.7571137391
H             0.0792080549        0.5516020177        0.5794901387
H             0.2759606645        0.6558594210        0.5818040748
H             0.6371309309        0.6662656095        0.5834081888
H             0.5123735269        0.7849285428        0.5903595995
H             0.0980909039       -0.0062098075        0.5582293241
H             0.1942772522        0.1739199588        0.5607855609
H             0.9375549196        1.0663687703        0.7594686038
H             0.8128982399        1.1206194001        0.7602582416
H             0.8450692407        0.4452943964        0.5861163136
H             0.7306087372        0.5611960118        0.5797738562

K_POINTS {automatic}
    1 1 1 0 0 0 