! NOTE THE MAJOR DIFFERENCE WITH RESPECT TO HYDROGEN ABSORPTION (1 MOLECULE):
! in this case, we need to perform a constrained optimization, i.e. the carbon atoms
! are not free to move along the xy plane -> introducing 2 molecules of H2 close together
! implicitly made favourable a conformation for the carbon layers in which the top plane shifted
! so to ABB stacking. This was not necessary for the single molecule simulation.


&control
   title           = "6H2_absorption_C" 
   restart_mode    = 'from_scratch'
   calculation     = 'vc-relax' 
   outdir          = '../../results/server/6h2_abs' 
   pseudo_dir      = '../../potentials' 
   prefix          = '6H2abs_C' 
    tstress         = .true 
    tprnfor         = .true 
/
&system
    a     =  4.23342e+00
    ibrav = 0
    nat   = 36
    ntyp  = 2
    ecutwfc = 40.0,
    ecutrho = 400.0,
    input_dft='LDA',
    occupations='smearing',
    smearing='gaussian',
    degauss=0.01,
/
&electrons
    !electron_maxstep=100
    mixing_mode='local-TF'
    mixing_beta=0.05
    !diagonalization="cg"
    !conv_thr=1e-6
/
&ions
/
&cell
    !cell_factor=4
    !cell_dofree='ibrav'
/
ATOMIC_SPECIES
    C 12.011 C.pz-n-rrkjus_psl.0.1.UPF !ultrasoft potential
    H  1.00784  H.pz-rrkjus_psl.0.1.UPF
CELL_PARAMETERS (alat=  8.00000437)
   1.154766992   0.006488357   0.025376056
  -0.580055001   0.987891497  -0.149571582
   0.084614511  -0.288632261   3.461182554

ATOMIC_POSITIONS (crystal)
C            -0.0531066316       -0.1020988180        0.1578214131
C             0.0092876405        0.0706880051        0.3865508592
C             0.0533887865        0.0522685751        0.9278329655
C             0.1134900541        0.2312073352        0.1578470623
C             0.3425712570        0.2373267734        0.3862799301
C             0.2201296840        0.3857278500        0.9279825658
C             0.4468962131       -0.1020992423        0.1578360031
C             0.5091935065        0.0703937046        0.3859832508
C             0.5533936154        0.0525113328        0.9282260192
C             0.6134872951        0.2312154278        0.1578786133
C             0.8425650393        0.2373851333        0.3864470927
C             0.7201207689        0.3859908839        0.9283826087
C            -0.0531019425        0.3980675006        0.1580330850
C             0.0093141705        0.5704973805        0.3862538392
C             0.0534600950        0.5526489124        0.9282994812
C             0.1135170703        0.7311715499        0.1577980159
C             0.3426192432        0.7373195090        0.3862125473
C             0.2200801704        0.8857201101        0.9280575031
C             0.4468714861        0.3979379966        0.1578873943
C             0.5093190041        0.5706901272        0.3864690195
C             0.5534770442        0.5526324872        0.9283189557
C             0.6134826390        0.7310266539        0.1576361255
C             0.8427640751        0.7374299296        0.3865975467
C             0.7200741226        0.8856459485        0.9279659093
H             0.4399365825        1.2299111671        0.5693584568
H             0.5992899075        1.2960272411        0.5971384463
H             0.3764156127        0.6420693248        0.7436214659
H             0.3002125101        0.4584592630        0.7413029912
H             0.7861685832        0.5863942551        0.7352721456
H             0.9093454492        0.5322547473        0.7383803669
H             0.2533903227       -0.0151634127        0.7373798980
H             0.4293323938        0.1190044905        0.7400473237
H             0.0927074224        0.5034053951        0.5721257555
H             0.2699273904        0.6302944843        0.5723344985
H             0.9451577379        0.9790463658        0.6191159225
H             0.7782533945        0.9565475162        0.6272134481

K_POINTS {automatic}
    6 6 2 1 1 1 