! NOTE THE MAJOR DIFFERENCE WITH RESPECT TO HYDROGEN ABSORPTION (1 MOLECULE):
! in this case, we need to perform a constrained optimization, i.e. the carbon atoms
! are not free to move along the xy plane -> introducing 2 molecules of H2 close together
! implicitly made favourable a conformation for the carbon layers in which the top plane shifted
! so to ABB stacking. This was not necessary for the single molecule simulation.


&control
   title           = "5H2_absorption_C" 
   restart_mode    = 'from_scratch'
   calculation     = 'vc-relax' 
   outdir          = '../../results/server/5h2_abs' 
   pseudo_dir      = '../../potentials' 
   prefix          = '5H2abs_C' 
    tstress         = .true 
    tprnfor         = .true 
/
&system
    a     =  4.23342e+00
    ibrav = 0
    nat   = 34
    ntyp  = 2
    ecutwfc = 40.0,
    ecutrho = 400.0,
    input_dft='LDA',
    occupations='smearing',
    smearing='gaussian',
    degauss=0.01,
/
&electrons
    !electron_maxstep=100
    mixing_mode='local-TF'
    mixing_beta=0.05
    !diagonalization="cg"
    !conv_thr=1e-6
/
&ions
/
&cell
    !cell_factor=4
    !cell_dofree='ibrav'
/
ATOMIC_SPECIES
    C 12.011 C.pz-n-rrkjus_psl.0.1.UPF !ultrasoft potential
    H  1.00784  H.pz-rrkjus_psl.0.1.UPF
CELL_PARAMETERS (alat=  8.00000437)
   1.155064537   0.003013083  -0.005699232
  -0.580577335   0.991771175  -0.116589798
   0.001422578  -0.262750242   3.227725011

ATOMIC_POSITIONS (crystal)
C            -0.0606365976       -0.1023475461        0.1542728078
C             0.0251106147        0.0578770880        0.3936657982
C             0.0431672575        0.0635250214        0.9176252923
C             0.1059677770        0.2309257424        0.1541331984
C             0.3586943796        0.2247639696        0.3941365622
C             0.2096540191        0.3967868563        0.9174925464
C             0.4393544333       -0.1023556931        0.1542584177
C             0.5252241378        0.0577604419        0.3936723778
C             0.5430503978        0.0635257464        0.9175256989
C             0.6059644401        0.2309205644        0.1541158747
C             0.8583454167        0.2243360443        0.3930660364
C             0.7096190459        0.3968891049        0.9174639039
C            -0.0606576782        0.3976042380        0.1541944673
C             0.0244742543        0.5569901665        0.3922684795
C             0.0430882207        0.5636730105        0.9175989615
C             0.1059482850        0.7309212140        0.1541138937
C             0.3580327965        0.7241452620        0.3933984061
C             0.2098981260        0.8970690525        0.9177790474
C             0.4393747819        0.3976505436        0.1542752530
C             0.5251151224        0.5578081395        0.3935760767
C             0.5429952896        0.5636957370        0.9177778152
C             0.6059803933        0.7309568588        0.1541826915
C             0.8581050432        0.7240893134        0.3928373468
C             0.7097224719        0.8968252745        0.9175172997
H             0.6940929084        0.9863526854        0.6318449532
H             0.8573761038        1.1388428064        0.6317162238
H             0.2821905872        0.6548816489        0.7045879351
H             0.3308233586        0.5365922275        0.7179851671
H             0.7818052162        0.6708688721        0.7316675411
H             0.8419154838        0.5542851765        0.7367707294
H             0.2226798990        0.0662076503        0.7189241638
H             0.4052623328        0.1508752825        0.7288884990
H            -0.0598968223        0.6212668110        0.5887780259
H             0.1030063332        0.7482109950        0.5762535715

K_POINTS {automatic}
    6 6 2 1 1 1 