! NOTE THE MAJOR DIFFERENCE WITH RESPECT TO HYDROGEN ABSORPTION (1 MOLECULE):
! in this case, we need to perform a constrained optimization, i.e. the carbon atoms
! are not free to move along the xy plane -> introducing 2 molecules of H2 close together
! implicitly made favourable a conformation for the carbon layers in which the top plane shifted
! so to ABB stacking. This was not necessary for the single molecule simulation.


&control
   title           = "7H2_absorption_C" 
   restart_mode    = 'from_scratch'
   calculation     = 'vc-relax' 
   outdir          = '../../results/server/7h2_abs' 
   pseudo_dir      = '../../potentials' 
   prefix          = '7H2abs_C' 
    tstress         = .true 
    tprnfor         = .true 
/
&system
    a     =  4.23342e+00
    ibrav = 0
    nat   = 38
    ntyp  = 2
    ecutwfc = 40.0,
    ecutrho = 400.0,
    input_dft='LDA',
    occupations='smearing',
    smearing='gaussian',
    degauss=0.01,
/
&electrons
    !electron_maxstep=100
    mixing_mode='local-TF'
    mixing_beta=0.01
    !diagonalization="cg"
    !conv_thr=1e-6
/
&ions
/
&cell
    !cell_factor=4
    !cell_dofree='ibrav'
/
ATOMIC_SPECIES
    C 12.011 C.pz-n-rrkjus_psl.0.1.UPF !ultrasoft potential
    H  1.00784  H.pz-rrkjus_psl.0.1.UPF
CELL_PARAMETERS (alat=  8.00000437)
   1.154735942   0.007577067   0.032951842
  -0.579914441   0.986777884  -0.157463365
   0.106578318  -0.301687063   3.467384195

ATOMIC_POSITIONS (crystal)
C            -0.0529565886       -0.1044729603        0.1567113947
C             0.0012536683        0.0757568967        0.3880230473
C             0.0563147121        0.0430016619        0.9259419934
C             0.1136967439        0.2287864627        0.1566836791
C             0.3345918892        0.2422704835        0.3878711643
C             0.2229669089        0.3764042490        0.9259479914
C             0.4470253520       -0.1045292395        0.1566305361
C             0.5011984249        0.0753587783        0.3875333383
C             0.5562378121        0.0429920609        0.9259808533
C             0.6136740443        0.2287354615        0.1566079151
C             0.8345541968        0.2422223792        0.3878081355
C             0.7229088425        0.3763940107        0.9259895559
C            -0.0529640424        0.3955052638        0.1566736090
C             0.0012004746        0.5755468665        0.3877554578
C             0.0563032568        0.5430724513        0.9259704803
C             0.1136585916        0.7287004781        0.1565722487
C             0.3345065094        0.7421357304        0.3877397436
C             0.2229405683        0.8763764965        0.9259592887
C             0.4470572802        0.3955598374        0.1567426492
C             0.5012369812        0.5757284657        0.3880203138
C             0.5563118182        0.5431254439        0.9260933603
C             0.6136790229        0.7287557404        0.1566424885
C             0.8346450898        0.7423669195        0.3880619997
C             0.7229367439        0.8763235332        0.9259496542
H             0.4446454037        1.2385114696        0.5645505207
H             0.5629572894        1.2904340157        0.6059376714
H             0.3840640257        0.6454750221        0.7391207663
H             0.3317780529        0.4660819613        0.7363549758
H             0.8035581204        0.5933248445        0.7396256243
H             0.9204297166        0.5292486560        0.7381070928
H             0.2722327822       -0.0097615975        0.7344398774
H             0.4500329726        0.1197828307        0.7419886729
H             0.0934977159        0.5215079189        0.5772705234
H             0.2687083774        0.6544184928        0.5784247190
H             0.9313354730        0.9817429591        0.6253269952
H             0.7572134827        0.9426718594        0.6268301880
H                0.0280498948        0.2565330701        0.6427383854
H                0.2640300736        0.4486070231        0.6441442481

K_POINTS {automatic}
     6 6 2 1 1 1