! NOTE THE MAJOR DIFFERENCE WITH RESPECT TO HYDROGEN ABSORPTION (1 MOLECULE):
! in this case, we need to perform a constrained optimization, i.e. the carbon atoms
! are not free to move along the xy plane -> introducing 2 molecules of H2 close together
! implicitly made favourable a conformation for the carbon layers in which the top plane shifted
! so to ABB stacking. This was not necessary for the single molecule simulation.


&control
   title           = "6H2_absorption_C" 
   restart_mode    = 'from_scratch'
   calculation     = 'vc-relax' 
   outdir          = '../../results/server/6h2_abs' 
   pseudo_dir      = '../../potentials' 
   prefix          = '6H2abs_C' 
    tstress         = .true 
    tprnfor         = .true 
/
&system
    a     =  4.23342e+00
    ibrav = 0
    nat   = 36
    ntyp  = 2
    ecutwfc = 40.0,
    ecutrho = 400.0,
    input_dft='LDA',
    occupations='smearing',
    smearing='gaussian',
    degauss=0.01,
/
&electrons
    !electron_maxstep=100
    mixing_mode='local-TF'
    mixing_beta=0.05
    !diagonalization="cg"
    !conv_thr=1e-6
/
&ions
/
&cell
    !cell_factor=4
    !cell_dofree='ibrav'
/
ATOMIC_SPECIES
    C 12.011 C.pz-n-rrkjus_psl.0.1.UPF !ultrasoft potential
    H  1.00784  H.pz-rrkjus_psl.0.1.UPF
CELL_PARAMETERS (alat=  8.00000437)
   1.155384746   0.002644985  -0.008155655
  -0.580804446   0.992098165  -0.116000173
  -0.004795895  -0.251266882   3.340924112

ATOMIC_POSITIONS (crystal)
C            -0.0602788523       -0.1022618316        0.1545459899
C             0.0251055209        0.0577429253        0.3932751490
C             0.0428745087        0.0636549510        0.9174977725
C             0.1063933071        0.2310741502        0.1544594153
C             0.3586304080        0.2247369218        0.3936322834
C             0.2094803305        0.3968962362        0.9173660013
C             0.4397182151       -0.1022658242        0.1545382652
C             0.5253011730        0.0578903319        0.3934218737
C             0.5427352562        0.0635917926        0.9174181676
C             0.6063917792        0.2310732143        0.1544513741
C             0.8584253091        0.2244084987        0.3929573088
C             0.7094235610        0.3969431167        0.9174137731
C            -0.0602921822        0.3977139175        0.1545064032
C             0.0247803463        0.5571381335        0.3922713089
C             0.0428306147        0.5637110475        0.9174337027
C             0.1063870775        0.7310732784        0.1544559926
C             0.3582683395        0.7243180973        0.3931256536
C             0.2095712354        0.8970502278        0.9175451566
C             0.4397218015        0.3977330294        0.1545418896
C             0.5252712388        0.5578529506        0.3933119332
C             0.5427928246        0.5637105346        0.9175408759
C             0.6064041152        0.7310918433        0.1544841203
C             0.8582911321        0.7241404484        0.3927210392
C             0.7094912180        0.8968940187        0.9174013301
H             0.6931463188        0.9857539060        0.6312092705
H             0.8560348861        1.1381873149        0.6308673639
H             0.2844337216        0.6572918104        0.7053771428
H             0.3281598801        0.5352039751        0.7181961516
H             0.7804899736        0.6700066957        0.7319075892
H             0.8442707530        0.5563266988        0.7368381330
H             0.2222856508        0.0650421258        0.7195723837
H             0.4049036258        0.1523580209        0.7293122675
H            -0.0592355395        0.6201669944        0.5889243399
H             0.1026402811        0.7461707545        0.5758436413
H             0.9476759739        0.8545325013        0.6426201777
H             0.7909079106        0.9526030960        0.6409032846

K_POINTS {automatic}
    6 6 2 1 1 1 