! NOTE THE MAJOR DIFFERENCE WITH RESPECT TO HYDROGEN ABSORPTION (1 MOLECULE):
! in this case, we need to perform a constrained optimization, i.e. the carbon atoms
! are not free to move along the xy plane -> introducing 2 molecules of H2 close together
! implicitly made favourable a conformation for the carbon layers in which the top plane shifted
! so to ABB stacking. This was not necessary for the single molecule simulation.


&control
   title           = "8H2_absorption_C" 
   restart_mode    = 'from_scratch'
   calculation     = 'vc-relax' 
   outdir          = '../../results/server/8h2_abs' 
   pseudo_dir      = '../../potentials' 
   prefix          = '8H2abs_C' 
    tstress         = .true 
    tprnfor         = .true 
/
&system
    a     =  4.23342e+00
    ibrav = 0
    nat   = 40
    ntyp  = 2
    ecutwfc = 40.0,
    ecutrho = 400.0,
    input_dft='LDA',
    occupations='smearing',
    smearing='gaussian',
    degauss=0.01,
/
&electrons
    !electron_maxstep=100
    mixing_mode='local-TF'
    mixing_beta=0.05
    !diagonalization="cg"
    !conv_thr=1e-6
/
&ions
/
&cell
    !cell_factor=4
    !cell_dofree='ibrav'
/
ATOMIC_SPECIES
    C 12.011 C.pz-n-rrkjus_psl.0.1.UPF !ultrasoft potential
    H  1.00784  H.pz-rrkjus_psl.0.1.UPF
CELL_PARAMETERS (alat=  8.00000437)
   1.153963594   0.012764791   0.066134881
  -0.578168516   0.981707227  -0.195582387
   0.206527889  -0.366803509   3.543056350

ATOMIC_POSITIONS (crystal)
C            -0.0487884246       -0.0761053716        0.1622606950
C            -0.0387283572        0.1449142307        0.3894808206
C             0.0916745612        0.0638505706        0.9344263211
C             0.1177104096        0.2571120516        0.1621327134
C             0.2945677370        0.3118234074        0.3895715341
C             0.2585584141        0.3972482625        0.9344920913
C             0.4511805483       -0.0761829008        0.1622801628
C             0.4613075958        0.1451229530        0.3895371883
C             0.5916655726        0.0640495939        0.9345113114
C             0.6176737535        0.2570701561        0.1621804032
C             0.7947486352        0.3117779848        0.3894989922
C             0.7585999078        0.3972985481        0.9343373862
C            -0.0489824555        0.4237536464        0.1621691416
C            -0.0385198769        0.6449761689        0.3895137364
C             0.0919178477        0.5641671384        0.9346418924
C             0.1178310388        0.7570624069        0.1621219696
C             0.2947728296        0.8115994898        0.3894076493
C             0.2583803367        0.8973422502        0.9345926362
C             0.4510583284        0.4237951700        0.1622124940
C             0.4614058809        0.6448525926        0.3893905296
C             0.5918334779        0.5641081071        0.9345480208
C             0.6178799601        0.7571609844        0.1622173569
C             0.7947497290        0.8117007214        0.3895868357
C             0.7583430476        0.8973435279        0.9345373032
H             0.6069765203        1.1738256722        0.5509436407
H             0.6681571868        1.1472465069        0.5908359667
H             0.4181154909        0.6524574422        0.7621533190
H             0.3556649651        0.4705980662        0.7591860862
H             0.8306662389        0.5883769337        0.7356330230
H             0.9581633311        0.5361508700        0.7310171006
H             0.3222126363       -0.0111358921        0.7337051123
H             0.4963028828        0.1232845273        0.7454112713
H             0.0980520415        0.5612078081        0.5689255744
H             0.1848237414        0.7439709038        0.5696438340
H             0.7055325692        0.6639275667        0.6116407665
H             0.5831344042        0.7170413379        0.6084937011
H             0.0612606206        0.1036293074        0.5964033861
H             0.2256085555        0.2582732562        0.6051291915
H             0.7306453936        0.8328273669        0.6962217751
H             0.5738355696        0.8213284544        0.6917858901

K_POINTS {automatic}
    6 6 2 1 1 1