! NOTE THE MAJOR DIFFERENCE WITH RESPECT TO HYDROGEN ABSORPTION (1 MOLECULE):
! in this case, we need to perform a constrained optimization, i.e. the carbon atoms
! are not free to move along the xy plane -> introducing 2 molecules of H2 close together
! implicitly made favourable a conformation for the carbon layers in which the top plane shifted
! so to ABB stacking. This was not necessary for the single molecule simulation.


&control
   title           = "3H2_absorption_C" 
   restart_mode    = 'from_scratch'
   calculation     = 'vc-relax' 
   outdir          = '../../results/server/3h2_abs' 
   pseudo_dir      = '../../potentials' 
   prefix          = '3H2abs_C' 
    tstress         = .true 
    tprnfor         = .true 
/
&system
    a     =  4.23342e+00
    ibrav = 0
    nat   = 30
    ntyp  = 2
    ecutwfc = 40.0,
    ecutrho = 400.0,
    input_dft='LDA',
    occupations='smearing',
    smearing='gaussian',
    degauss=0.01,
/
&electrons
    !electron_maxstep=100
    mixing_mode='local-TF'
    mixing_beta=0.05
    !diagonalization="cg"
    !conv_thr=1e-6
/
&ions
/
&cell
    !cell_factor=4
    !cell_dofree='ibrav'
/
ATOMIC_SPECIES
    C 12.011 C.pz-n-rrkjus_psl.0.1.UPF !ultrasoft potential
    H  1.00784  H.pz-rrkjus_psl.0.1.UPF
CELL_PARAMETERS (alat=  8.00000437)
   1.155269246   0.000561219  -0.023515637
  -0.579593355   0.996657318  -0.070788414
  -0.041001218  -0.208656142   2.841850781

ATOMIC_POSITIONS (crystal)
C            -0.0480101614       -0.0610129383        0.1696675811
C             0.0358713839        0.0661219575        0.4415466316
C             0.0208713451        0.0081752408        0.8860193483
C             0.1182601350        0.2717991823        0.1691339861
C             0.3690903324        0.2326914646        0.4415426464
C             0.1878693095        0.3415704007        0.8861979974
C             0.4516183190       -0.0615896814        0.1692263966
C             0.5355811712        0.0658677987        0.4413690071
C             0.5217172526        0.0089753475        0.8852708831
C             0.6179073564        0.2713506312        0.1686301437
C             0.8689996507        0.2324122132        0.4413923916
C             0.6887474332        0.3424355676        0.8856766369
C            -0.0484910511        0.4382942665        0.1687645086
C             0.0352266793        0.5657420496        0.4413397376
C             0.0220128142        0.5091875367        0.8859134258
C             0.1180741383        0.7716207335        0.1691287279
C             0.3688229790        0.7324336444        0.4414830118
C             0.1882295588        0.8420273856        0.8851659652
C             0.4518435584        0.4385662754        0.1690761039
C             0.5355626428        0.5661352491        0.4413484304
C             0.5210512397        0.5083441411        0.8860133196
C             0.6184225505        0.7720036300        0.1695564183
C             0.8688851625        0.7325846993        0.4415063047
C             0.6874757045        0.8414804779        0.8858235582
H             0.7136257351        0.9639203062        0.6563607418
H             0.8890914008        1.1018203069        0.6623399286
H             0.2131102962        0.5891987707        0.6562101049
H             0.3233722842        0.5292296674        0.6754393928
H             0.7825883882        0.5954417311        0.6665292674
H             0.6978647089        0.4110691220        0.6613687553
K_POINTS {automatic}
    6 6 2 1 1 1

    

