! NOTE THE MAJOR DIFFERENCE WITH RESPECT TO HYDROGEN ABSORPTION (1 MOLECULE):
! in this case, we need to perform a constrained optimization, i.e. the carbon atoms
! are not free to move along the xy plane -> introducing 2 molecules of H2 close together
! implicitly made favourable a conformation for the carbon layers in which the top plane shifted
! so to ABB stacking. This was not necessary for the single molecule simulation.


&control
   title           = "7H2_absorption_C" 
   restart_mode    = 'from_scratch'
   calculation     = 'vc-relax' 
   outdir          = '../../results/server/7h2_abs' 
   pseudo_dir      = '../../potentials' 
   prefix          = '7H2abs_C' 
    tstress         = .true 
    tprnfor         = .true 
/
&system
    a     =  4.23342e+00
    ibrav = 0
    nat   = 38
    ntyp  = 2
    ecutwfc = 40.0,
    ecutrho = 400.0,
    input_dft='LDA',
    occupations='smearing',
    smearing='gaussian',
    degauss=0.01,
/
&electrons
    electron_maxstep=200
    mixing_mode='local-TF'
    mixing_beta=0.01
    !diagonalization="cg"
    !conv_thr=1e-6
/
&ions
/
&cell
    !cell_factor=4
    !cell_dofree='ibrav'
/
ATOMIC_SPECIES
    C 12.011 C.pz-n-rrkjus_psl.0.1.UPF !ultrasoft potential
    H  1.00784  H.pz-rrkjus_psl.0.1.UPF
CELL_PARAMETERS (alat=  8.00000437)
   1.154899478   0.008911771   0.039704213
  -0.579518560   0.986765361  -0.160709345
   0.124494796  -0.285972594   3.575541597

ATOMIC_POSITIONS (crystal)
C            -0.0515304278       -0.1008405176        0.1580667522
C            -0.0111879912        0.0857116051        0.3803716544
C             0.0817773482        0.0659380847        0.9371207775
C             0.1150791883        0.2324895650        0.1580142556
C             0.3220839999        0.2522732343        0.3801959244
C             0.2486276323        0.3996627979        0.9375538031
C             0.4485490048       -0.1005507801        0.1583746784
C             0.4886147986        0.0847699645        0.3791880984
C             0.5817515950        0.0658880100        0.9369862874
C             0.6151578799        0.2327790508        0.1583236170
C             0.8221323701        0.2518002905        0.3794554195
C             0.7485119751        0.3992671984        0.9370458440
C            -0.0515725345        0.3991473126        0.1580166112
C            -0.0113015596        0.5844494751        0.3787077278
C             0.0819135382        0.5662387978        0.9373428470
C             0.1151455729        0.7324456717        0.1579194663
C             0.3218958655        0.7508762590        0.3784965261
C             0.2484361355        0.8991588857        0.9369983144
C             0.4484904076        0.3995037894        0.1584760079
C             0.4887723538        0.5851818425        0.3796730786
C             0.5820067787        0.5665607914        0.9377267500
C             0.6151986703        0.7327949683        0.1583722587
C             0.8221912734        0.7519910016        0.3799097764
C             0.7485677279        0.8995225252        0.9374241721
H             0.6005649891        1.2097465492        0.5437347364
H             0.6416285313        1.1993389072        0.5907799325
H             0.4362691596        0.7109508509        0.7704780775
H             0.3732008925        0.5312817651        0.7704033847
H             0.8249248963        0.6086043529        0.7496406909
H             0.9513351508        0.5565618373        0.7475406781
H             0.2927815942        0.0185864725        0.7297638694
H             0.4692057709        0.1461821035        0.7412179169
H             0.0667174330        0.6074263336        0.5675595877
H             0.1771145075        0.7918291294        0.5717858734
H             0.7167472269        0.7430118275        0.6183104014
H             0.5691801946        0.7634708410        0.6199246489
H             0.0511011078        0.1817705491        0.6145274026
H             0.2254286246        0.3188746538        0.6233433104

K_POINTS {automatic}
    6 6 2 1 1 1