! NOTE THE MAJOR DIFFERENCE WITH RESPECT TO HYDROGEN ABSORPTION (1 MOLECULE):
! in this case, we need to perform a constrained optimization, i.e. the carbon atoms
! are not free to move along the xy plane -> introducing 2 molecules of H2 close together
! implicitly made favourable a conformation for the carbon layers in which the top plane shifted
! so to ABB stacking. This was not necessary for the single molecule simulation.


&control
   title           = "3H2_absorption_C" 
   restart_mode    = 'from_scratch'
   calculation     = 'vc-relax' 
   outdir          = '../../results/server/3h2_abs' 
   pseudo_dir      = '../../potentials' 
   prefix          = '3H2abs_C' 
    tstress         = .true 
    tprnfor         = .true 
/
&system
    a     =  4.23342e+00
    ibrav = 0
    nat   = 30
    ntyp  = 2
    ecutwfc = 40.0,
    ecutrho = 400.0,
    input_dft='LDA',
    occupations='smearing',
    smearing='gaussian',
    degauss=0.01,
/
&electrons
    !electron_maxstep=100
    mixing_mode='local-TF'
    mixing_beta=0.05
    !diagonalization="cg"
    !conv_thr=1e-6
/
&ions
/
&cell
    !cell_factor=4
    !cell_dofree='ibrav'
/
ATOMIC_SPECIES
    C 12.011 C.pz-n-rrkjus_psl.0.1.UPF !ultrasoft potential
    H  1.00784  H.pz-rrkjus_psl.0.1.UPF
CELL_PARAMETERS (alat=  8.00000437)
   1.154037760   0.000188526  -0.028245823
  -0.576998700   0.999486730   0.006609879
  -0.056943541  -0.018117759   2.712768491

ATOMIC_POSITIONS (crystal)
C            -0.0080834356       -0.0046557406        0.1709602510
C             0.0205632197        0.0079823841        0.4403673410
C            -0.0117214151       -0.0053554464        0.8827334772
C             0.1586132856        0.3287531318        0.1708800214
C             0.3537850560        0.1744795636        0.4414975226
C             0.1548896215        0.3277767586        0.8823596671
C             0.4919630616       -0.0046269712        0.1709878988
C             0.5204840433        0.0076907437        0.4410915569
C             0.4880483942       -0.0056158704        0.8815266436
C             0.6586124087        0.3287324720        0.1709386781
C             0.8538973656        0.1745443254        0.4405735505
C             0.6549651276        0.3278421044        0.8812355503
C            -0.0079886456        0.4953878179        0.1709997642
C             0.0202208800        0.5077875737        0.4397968036
C            -0.0117790481        0.4945161507        0.8822554172
C             0.1586121948        0.8287384039        0.1708898332
C             0.3536019293        0.6744586671        0.4401394329
C             0.1547854821        0.8278563735        0.8821348630
C             0.4919554245        0.4953583066        0.1709813640
C             0.5204088933        0.5080760299        0.4410330877
C             0.4881254316        0.4946891235        0.8815541251
C             0.6586301102        0.8287468423        0.1708504550
C             0.8538411213        0.6745823358        0.4405430149
C             0.6548638644        0.8278585548        0.8823734886
H             0.8147541315        0.8179362298        0.6535225495
H             0.7879218596        0.9602508297        0.6567428454
H             0.1422572873        0.6227985935        0.6648246174
H             0.2704323507        0.5747387123        0.6661981796
H             0.9075456144        0.7578004894        0.6800109584
H             0.7610867033        0.5787686886        0.6790383945
K_POINTS {automatic}
    6 6 2 1 1 1

    

