&control
   title           = "1H2_absorption_C_strain" 
   calculation     = 'scf' 
   outdir          = '../../results/server/1h2_abs_strain' 
   pseudo_dir      = '../../potentials' 
   prefix          = '1H2abs_C_strain' 
    tstress         = .true 
    tprnfor         = .true 
/
&system
    a     =  4.23342e+00
    ibrav = 0
    nat   = 26
    ntyp  = 2
    ecutwfc = 40.0,
    ecutrho = 400.0,
    input_dft='LDA',
    occupations='smearing',
    smearing='gaussian',
    degauss=0.01,
/
&electrons
    !electron_maxstep=100
    mixing_mode='local-TF'
    mixing_beta=0.05
    !diagonalization="cg"
    !conv_thr=1e-6
/
&ions
/
&cell
    !cell_factor=4
    !cell_dofree='ibrav'
/
ATOMIC_SPECIES
    C 12.011 C.pz-n-rrkjus_psl.0.1.UPF !ultrasoft potential
    H  1.00784  H.pz-rrkjus_psl.0.1.UPF
CELL_PARAMETERS (alat=  8.00000437)
   1.147665379   0.000202723  -0.001136063
  -0.573656743   0.993642694   0.000961060
  -0.003587394   0.001192753   2.342684988

ATOMIC_POSITIONS (crystal)
C            -0.0002834913        0.0000675905        0.1706224225
C             0.0033561813       -0.0011501240        0.4596996134
C            -0.0013017214        0.0000494210        0.8623255097
C             0.1664852084        0.3334091717        0.1701580332
C             0.3361837757        0.1652441544        0.4618253264
C             0.1654160235        0.3332584887        0.8589891947
C             0.4998051112        0.0000664445        0.1706145353
C             0.5026473966       -0.0015277339        0.4605132221
C             0.4987205306       -0.0001089919        0.8617724957
C             0.6664430752        0.3334045210        0.1701800199
C             0.8364405553        0.1653779708        0.4606692461
C             0.6651884875        0.3333274853        0.8587607989
C            -0.0002069135        0.5001042254        0.1703045601
C             0.0028896596        0.4986159355        0.4614768863
C            -0.0013527544        0.5000493383        0.8569957225
C             0.1664851702        0.8334436618        0.1701560407
C             0.3357056951        0.6649871183        0.4602608066
C             0.1653744052        0.8335387179        0.8588557954
C             0.4998070440        0.5001621095        0.1706220074
C             0.5026197750        0.4984774571        0.4602505011
C             0.4986683741        0.5001281674        0.8621046341
C             0.6664787871        0.8334173777        0.1705552424
C             0.8364371764        0.6653485617        0.4604444322
C             0.6653809187        0.8333974831        0.8666801905
K_POINTS {automatic}
    6 6 2 1 1 1

