! NOTE THE MAJOR DIFFERENCE WITH RESPECT TO HYDROGEN ABSORPTION (1 MOLECULE):
! in this case, we need to perform a constrained optimization, i.e. the carbon atoms
! are not free to move along the xy plane -> introducing 2 molecules of H2 close together
! implicitly made favourable a conformation for the carbon layers in which the top plane shifted
! so to ABB stacking. This was not necessary for the single molecule simulation.


&control
   title           = "4H2_absorption_C" 
   restart_mode    = 'from_scratch'
   calculation     = 'vc-relax' 
   outdir          = '../../results/server/4h2_abs' 
   pseudo_dir      = '../../potentials' 
   prefix          = '4H2abs_C' 
    tstress         = .true 
    tprnfor         = .true 
/
&system
    a     =  4.23342e+00
    ibrav = 0
    nat   = 32
    ntyp  = 2
    ecutwfc = 40.0,
    ecutrho = 400.0,
    input_dft='LDA',
    occupations='smearing',
    smearing='gaussian',
    degauss=0.01,
/
&electrons
    !electron_maxstep=100
    mixing_mode='local-TF'
    mixing_beta=0.05
    !diagonalization="cg"
    !conv_thr=1e-6
/
&ions
/
&cell
    !cell_factor=4
    !cell_dofree='ibrav'
/
ATOMIC_SPECIES
    C 12.011 C.pz-n-rrkjus_psl.0.1.UPF !ultrasoft potential
    H  1.00784  H.pz-rrkjus_psl.0.1.UPF
CELL_PARAMETERS (alat=  8.00000437)
   1.155261888   0.000710663  -0.020733332
  -0.580104268   0.994089151  -0.101176556
  -0.033376551  -0.285507505   2.885434301

ATOMIC_POSITIONS (crystal)
C            -0.0618995224       -0.0874589635        0.1646654482
C             0.0323358033        0.0719423041        0.4398591438
C             0.0307292979        0.0217651177        0.8898977000
C             0.1047233466        0.2458050395        0.1645564209
C             0.3656832284        0.2386406620        0.4398726641
C             0.1974134376        0.3551267833        0.8898752930
C             0.4380994496       -0.0874634970        0.1646674866
C             0.5323963396        0.0719372410        0.4398438101
C             0.5307874525        0.0217786266        0.8898764900
C             0.6047226879        0.2458058403        0.1645584143
C             0.8656976825        0.2386074058        0.4398425339
C             0.6974456258        0.3551162486        0.8898860783
C            -0.0619092608        0.4125218997        0.1646420150
C             0.0323679877        0.5719157127        0.4398932392
C             0.0307811716        0.5218437751        0.8900082641
C             0.1047330856        0.7458275113        0.1646025986
C             0.3657727322        0.7386637551        0.4399314050
C             0.1973853666        0.8550338409        0.8898328440
C             0.4380862499        0.4125148051        0.1646198824
C             0.5323470923        0.5719007608        0.4398264041
C             0.5307456176        0.5218342577        0.8898964206
C             0.6047321786        0.7458241894        0.1645828391
C             0.8657051144        0.7386161971        0.4399520042
C             0.6974497560        0.8550998753        0.8898809117
H             0.7123787879        0.9848769938        0.6665295358
H             0.8923538449        1.1014674304        0.6665284797
H             0.2159069818        0.5869647596        0.6669314526
H             0.3392370780        0.5320871623        0.6631290170
H             0.7840379617        0.6076344551        0.6646238188
H             0.7350457424        0.4316669881        0.6662287376
H                0.270000            0.200000            0.620000
H                0.410000            0.210000            0.620000           
K_POINTS {automatic}
    6 6 2 1 1 1
