! NOTE THE MAJOR DIFFERENCE WITH RESPECT TO HYDROGEN ABSORPTION (1 MOLECULE):
! in this case, we need to perform a constrained optimization, i.e. the carbon atoms
! are not free to move along the xy plane -> introducing 2 molecules of H2 close together
! implicitly made favourable a conformation for the carbon layers in which the top plane shifted
! so to ABB stacking. This was not necessary for the single molecule simulation.


&control
   title           = "5H2_absorption_C" 
   restart_mode    = 'from_scratch'
   calculation     = 'vc-relax' 
   outdir          = '../../results/server/5h2_abs' 
   pseudo_dir      = '../../potentials' 
   prefix          = '5H2abs_C' 
    tstress         = .true 
    tprnfor         = .true 
/
&system
    a     =  4.23342e+00
    ibrav = 0
    nat   = 34
    ntyp  = 2
    ecutwfc = 40.0,
    ecutrho = 400.0,
    input_dft='LDA',
    occupations='smearing',
    smearing='gaussian',
    degauss=0.01,
/
&electrons
    !electron_maxstep=100
    mixing_mode='local-TF'
    mixing_beta=0.05
    !diagonalization="cg"
    !conv_thr=1e-6
/
&ions
/
&cell
    !cell_factor=4
    !cell_dofree='ibrav'
/
ATOMIC_SPECIES
    C 12.011 C.pz-n-rrkjus_psl.0.1.UPF !ultrasoft potential
    H  1.00784  H.pz-rrkjus_psl.0.1.UPF
CELL_PARAMETERS (alat=  8.00000437)
   1.155916771   0.001460267  -0.014103418
  -0.580592264   0.993377206  -0.111900214
  -0.017394065  -0.305092596   2.896941751

ATOMIC_POSITIONS (crystal)
C            -0.0617684006       -0.0965166158        0.1615612710
C             0.0374154252        0.0868748942        0.4370016230
C             0.0341995059        0.0375261825        0.8881068637
C             0.1048270648        0.2367343247        0.1614206211
C             0.3707558808        0.2535917297        0.4370604728
C             0.2008416124        0.3708333774        0.8880725359
C             0.4382175417       -0.0965296881        0.1615480954
C             0.5373684904        0.0868745101        0.4370073312
C             0.5341673650        0.0375339763        0.8881005363
C             0.6048332685        0.2367297067        0.1614074442
C             0.8707741975        0.2535526620        0.4370286864
C             0.7008121618        0.3708530868        0.8880733657
C            -0.0618108926        0.4034157814        0.1614704161
C             0.0374257864        0.5868056905        0.4369929372
C             0.0342077725        0.5375689815        0.8881472287
C             0.1048442735        0.7367617110        0.1614477641
C             0.3707216303        0.7535484809        0.4370482805
C             0.2008569020        0.8708267922        0.8880730737
C             0.4382110404        0.4034572842        0.1615146693
C             0.5374308456        0.5868858247        0.4370358481
C             0.5341621073        0.5375480600        0.8881191006
C             0.6048537766        0.7367841342        0.1615047183
C             0.8707751931        0.7535634561        0.4370812714
C             0.7008362629        0.8708490632        0.8880798374
H             0.7146330326        0.9771617350        0.6640060177
H             0.8596645774        1.1456552638        0.6633624634
H             0.2395893392        0.6062854010        0.6616024803
H             0.3282512181        0.5126095547        0.6619734112
H             0.8208640488        0.6522798030        0.6644697527
H             0.7541797799        0.4721480366        0.6644907413
H             0.2016270412        0.0439991001        0.6576996846
H             0.3715244690        0.0716848771        0.6585328094
H               -0.0424932282        0.7305463415        0.6590685248
H                0.1920487398        0.8439767868        0.6402551855

K_POINTS {automatic}
    6 6 2 1 1 1 