! NOTE THE MAJOR DIFFERENCE WITH RESPECT TO HYDROGEN ABSORPTION (1 MOLECULE):
! in this case, we need to perform a constrained optimization, i.e. the carbon atoms
! are not free to move along the xy plane -> introducing 2 molecules of H2 close together
! implicitly made favourable a conformation for the carbon layers in which the top plane shifted
! so to ABB stacking. This was not necessary for the single molecule simulation.


&control
   title           = "8H2_absorption_C" 
   restart_mode    = 'from_scratch'
   calculation     = 'vc-relax' 
   outdir          = '../../results/server/8h2_abs' 
   pseudo_dir      = '../../potentials' 
   prefix          = '8H2abs_C' 
    tstress         = .true 
    tprnfor         = .true 
/
&system
    a     =  4.23342e+00
    ibrav = 0
    nat   = 40
    ntyp  = 2
    ecutwfc = 40.0,
    ecutrho = 400.0,
    input_dft='LDA',
    occupations='smearing',
    smearing='gaussian',
    degauss=0.01,
/
&electrons
    !electron_maxstep=100
    mixing_mode='local-TF'
    mixing_beta=0.05
    !diagonalization="cg"
    !conv_thr=1e-6
/
&ions
/
&cell
    !cell_factor=4
    !cell_dofree='ibrav'
/
ATOMIC_SPECIES
    C 12.011 C.pz-n-rrkjus_psl.0.1.UPF !ultrasoft potential
    H  1.00784  H.pz-rrkjus_psl.0.1.UPF
CELL_PARAMETERS (alat=  8.00000437)
   1.153963594   0.012764791   0.066134881
  -0.578168516   0.981707227  -0.195582387
   0.206527889  -0.366803509   3.543056350

ATOMIC_POSITIONS (crystal)
CELL_PARAMETERS (alat=  8.00000437)
   1.155047234   0.011209175   0.057449754
  -0.579323074   0.984453576  -0.182554695
   0.186786541  -0.343014012   3.508913072

ATOMIC_POSITIONS (crystal)
C            -0.0576593973       -0.0747365575        0.1606407945
C            -0.0423618011        0.1424000376        0.3884785893
C             0.0646800817        0.0444155715        0.9329679513
C             0.1091192477        0.2587207096        0.1607906583
C             0.2909606544        0.3090171834        0.3884404988
C             0.2313500362        0.3780691066        0.9333483713
C             0.4424129091       -0.0743599291        0.1610349048
C             0.4575892996        0.1421763152        0.3882835717
C             0.5646310537        0.0442256315        0.9328797801
C             0.6092074348        0.2590795316        0.1612054723
C             0.7909592546        0.3090066928        0.3884140133
C             0.7313197457        0.3778363632        0.9331569209
C            -0.0575061265        0.4255893958        0.1609969764
C            -0.0424663467        0.6424795842        0.3886368582
C             0.0646077645        0.5446265150        0.9332335225
C             0.1090324903        0.7586575142        0.1606908887
C             0.2908119112        0.8088658738        0.3884253531
C             0.2312643277        0.8775117960        0.9327899569
C             0.4425077217        0.4257329785        0.1611536352
C             0.4575827534        0.6423265686        0.3884969267
C             0.5646824866        0.5447646674        0.9334353974
C             0.6090269319        0.7587289516        0.1608402574
C             0.7909198531        0.8093178370        0.3887808226
C             0.7313822942        0.8777203458        0.9330533226
H             0.5945906504        1.1553391926        0.5598257200
H             0.7082199627        1.1231231176        0.5823214879
H             0.4128940897        0.6488745794        0.7586111975
H             0.3163846987        0.4613432832        0.7487527024
H             0.8242667370        0.5928049657        0.7364985353
H             0.9101746311        0.5001695112        0.7412410805
H             0.2965609553       -0.0458020168        0.7392723121
H             0.4336063954        0.1311651184        0.7438016698
H             0.0941410242        0.5478806672        0.5720968782
H             0.2054042873        0.7320849778        0.5767560723
H             0.7203471992        0.6283343298        0.5803919932
H             0.5824962375        0.6573598534        0.5744505310
H             0.0769658151        0.0723134420        0.5858348861
H             0.2320790772        0.2375150023        0.5943241220
H             0.9452394766        1.0593199533        0.7486894222
H             0.7825668276        1.0448531568        0.7437347691

K_POINTS {automatic}
    6 6 2 1 1 1