! NOTE THE MAJOR DIFFERENCE WITH RESPECT TO HYDROGEN ABSORPTION (1 MOLECULE):
! in this case, we need to perform a constrained optimization, i.e. the carbon atoms
! are not free to move along the xy plane -> introducing 2 molecules of H2 close together
! implicitly made favourable a conformation for the carbon layers in which the top plane shifted
! so to ABB stacking. This was not necessary for the single molecule simulation.


&control
   title           = "7H2_absorption_C" 
   restart_mode    = 'from_scratch'
   calculation     = 'vc-relax' 
   outdir          = '../../results/server/7h2_abs' 
   pseudo_dir      = '../../potentials' 
   prefix          = '7H2abs_C' 
    tstress         = .true 
    tprnfor         = .true 
/
&system
    a     =  4.23342e+00
    ibrav = 0
    nat   = 38
    ntyp  = 2
    ecutwfc = 40.0,
    ecutrho = 400.0,
    input_dft='LDA',
    occupations='smearing',
    smearing='gaussian',
    degauss=0.01,
/
&electrons
    electron_maxstep=200
    mixing_mode='local-TF'
    mixing_beta=0.01
    !diagonalization="cg"
    !conv_thr=1e-6
/
&ions
/
&cell
    !cell_factor=4
    !cell_dofree='ibrav'
/
ATOMIC_SPECIES
    C 12.011 C.pz-n-rrkjus_psl.0.1.UPF !ultrasoft potential
    H  1.00784  H.pz-rrkjus_psl.0.1.UPF
CELL_PARAMETERS (alat=  8.00000437)
   1.154053801   0.012357016   0.063276545
  -0.578342513   0.982387889  -0.191068151
   0.197459883  -0.355098196   3.548190361

ATOMIC_POSITIONS (crystal)
C            -0.0481955736       -0.0774945077        0.1619746524
C            -0.0381312818        0.1451409276        0.3900814935
C             0.0924449470        0.0650124269        0.9343567262
C             0.1183832574        0.2557832870        0.1618693199
C             0.2951011795        0.3119502913        0.3901873320
C             0.2592412989        0.3984609856        0.9344445929
C             0.4517760247       -0.0775118216        0.1619976732
C             0.4618687886        0.1452281897        0.3900930316
C             0.5924097003        0.0651299387        0.9344255602
C             0.6183538206        0.2557697736        0.1619087863
C             0.7952125053        0.3118052248        0.3900346912
C             0.7592623644        0.3984043922        0.9342870975
C            -0.0483231242        0.4224282725        0.1619055828
C            -0.0380306997        0.6451859984        0.3901017981
C             0.0926097349        0.5652885663        0.9345719721
C             0.1184294206        0.7557665224        0.1618761001
C             0.2951701385        0.8116430346        0.3899863852
C             0.2591374635        0.8984754292        0.9345014801
C             0.4517123849        0.4224734351        0.1619486281
C             0.4619039857        0.6450384249        0.3900079866
C             0.5925366946        0.5652207414        0.9344649818
C             0.6184637799        0.7558115449        0.1619445598
C             0.7952266218        0.8118549992        0.3902018249
C             0.7591195441        0.8984135188        0.9344125466
H             0.6082882166        1.1693693162        0.5490159473
H             0.6603673014        1.1412258040        0.5905225372
H             0.4138798336        0.6528931628        0.7623451092
H             0.3518804002        0.4710113370        0.7590649893
H             0.8309784589        0.5868227204        0.7341201571
H             0.9580518022        0.5339783649        0.7290141732
H             0.3222920714       -0.0109492062        0.7337141153
H             0.4954323272        0.1246628462        0.7462573280
H             0.0976891675        0.5535575014        0.5676349716
H             0.1812494077        0.7365753339        0.5690163837
H             0.7052118430        0.6704896321        0.6126727341
H             0.5915612917        0.7350780344        0.6097626077
H             0.0598446424        0.1042443944        0.5980861146
H             0.2231019425        0.2604571596        0.6059591875

K_POINTS {automatic}
    6 6 2 1 1 1