! Code taken form https://github.com/pranabdas/espresso

&BANDS
  prefix  = 'graphene-base_bands'
  outdir  = '../../results/graphene-base_bands'
  filband = 'graphene_bands.dat'
  lsym = .true.,ATOMIC_SPECIES
/