&control
    calculation = "nscf",
    prefix = "graphene-base-nscf",
    outdir = "../../results/graphene-base-nscf",
    pseudo_dir = "/home/edoardocabiati/.burai/.pseudopot"
/
&system
    ibrav = 4,
    celldm(1) = 4.60925103211943136
    celldm(3) = 2.67485154304358451840
    nat = 4,
    ntyp = 1,
    ecutwfc = 40.0,
    input_dft='LDA',
    occupations='tetrahedra_opt',
/
&electrons
    conv_thr = 1.0e-8
/
&ions
/
&cell
/
ATOMIC_SPECIES
    C 12.011 C.pz-n-rrkjus_psl.0.1.UPF !ultrasoft potential
ATOMIC_POSITIONS {crystal}
    C 0.00 0.00 0.25
    C 0.00 0.00 0.75
    C 0.333333 0.666666 0.25
    C 0.666666 0.333333 0.75
K_POINTS automatic
    12 12 2 1 1 1