! NOTE THE MAJOR DIFFERENCE WITH RESPECT TO HYDROGEN ABSORPTION (1 MOLECULE):
! in this case, we need to perform a constrained optimization, i.e. the carbon atoms
! are not free to move along the xy plane -> introducing 2 molecules of H2 close together
! implicitly made favourable a conformation for the carbon layers in which the top plane shifted
! so to ABB stacking. This was not necessary for the single molecule simulation.


&control
   title           = "8H2_absorption_C" 
   restart_mode    = 'from_scratch'
   calculation     = 'vc-relax' 
   outdir          = '../../results/remote/8h2_abs' 
   pseudo_dir      = '/home/edoardocabiati/.burai/.pseudopot' 
   prefix          = '8H2abs_C' 
    tstress         = .true 
    tprnfor         = .true 
/
&system
    a     =  4.23342e+00
    ibrav = 0
    nat   = 40
    ntyp  = 2
    ecutwfc = 40.0,
    ecutrho = 400.0,
    input_dft='LDA',
    occupations='smearing',
    smearing='gaussian',
    degauss=0.01,
/
&electrons
    !electron_maxstep=100
    mixing_mode='local-TF'
    mixing_beta=0.05
    !diagonalization="cg"
    !conv_thr=1e-6
/
&ions
/
&cell
    !cell_factor=4
    !cell_dofree='ibrav'
/
ATOMIC_SPECIES
    C 12.011 C.pz-n-rrkjus_psl.0.1.UPF !ultrasoft potential
    H  1.00784  H.pz-rrkjus_psl.0.1.UPF
CELL_PARAMETERS (alat)
   1.171623671  -0.000019297  -0.003802365
  -0.585823019   1.014751478   0.000356574
   0.004576600   0.003529573   2.879528772

ATOMIC_POSITIONS (crystal)
C               -0.0002364945       -0.0004410364        0.1752598526    0   0   1
C               -0.0000892770       -0.0002308867        0.3661516457    0   0   1
C                0.0000813671       -0.0003145998        0.9012014466    0   0   1
C                0.1665215367        0.3330685917        0.1734997782    0   0   1
C                0.3336262215        0.1665941057        0.3673551057    0   0   1
C                0.1668846903        0.3335266220        0.9001833372    0   0   1
C                0.4997391930       -0.0003525121        0.1754822853    0   0   1
C                0.5002490985       -0.0002189229        0.3656763347    0   0   1
C                0.5003643463       -0.0000558202        0.9013234173    0   0   1
C                0.6666027868        0.3329918232        0.1735063789    0   0   1
C                0.8331354317        0.1662700803        0.3673897924    0   0   1
C                0.6669798411        0.3334500988        0.9003313425    0   0   1
C               -0.0003260933        0.4994244939        0.1748192504    0   0   1
C                0.0003389426        0.4999267260        0.3661737341    0   0   1
C                0.0011375310        0.5008218305        0.8995795697    0   0   1
C                0.1663245738        0.8327019348        0.1735241938    0   0   1
C                0.3338195187        0.6667186191        0.3679168119    0   0   1
C                0.1677596218        0.8338316618        0.9004936201    0   0   1
C                0.5001906152        0.4997949385        0.1760346629    0   0   1
C                0.5005613492        0.5002622184        0.3652752469    0   0   1
C                0.4999245966        0.4999251113        0.9008649287    0   0   1
C                0.6663711556        0.8330215442        0.1741775990    0   0   1
C                0.8337365955        0.6666304133        0.3679752979    0   0   1
C                0.6667478153        0.8329759992        0.9021390487    0   0   1
H                0.8119532552        1.2934577047        0.6771773223
H                0.5748952918        1.1008290417        0.6812316432
H                0.5318223714        0.8636533053        0.6932831061
H                0.6702840209        0.5894592647        0.6860255146
H                0.8558361448        0.5262627808        0.6785281474
H                0.4421341796        0.3965995311        0.6778199425
H                0.1519255476       -0.0440850621        0.6766543875
H                0.3878552698        0.1509702546        0.6775863335
H                0.0960082615        0.7151708296        0.6763601688
H                0.2913980791        0.6775950241        0.6833397682
H                0.9679155267        1.0145665910        0.6838449970
H                0.7412816125        0.8412687548        0.5417841072
H                0.0097104466        0.2507340453        0.6772741869
H                0.2456190831        0.4351630617        0.6767663072
H                0.7306453936        0.8328273669        0.6962217751
H                0.5738355696        0.8213284544        0.5417858901


K_POINTS {automatic}
    1 1 1 0 0 0 