! NOTE THE MAJOR DIFFERENCE WITH RESPECT TO HYDROGEN ABSORPTION (1 MOLECULE):
! in this case, we need to perform a constrained optimization, i.e. the carbon atoms
! are not free to move along the xy plane -> introducing 2 molecules of H2 close together
! implicitly made favourable a conformation for the carbon layers in which the top plane shifted
! so to ABB stacking. This was not necessary for the single molecule simulation.


&control
   title           = "5H2_absorption_C" 
   restart_mode    = 'from_scratch'
   calculation     = 'vc-relax' 
   outdir          = '../../results/remote/5h2_abs' 
   pseudo_dir      = '/home/edoardocabiati/.burai/.pseudopot' 
   prefix          = '5H2abs_C' 
    tstress         = .true 
    tprnfor         = .true 
/
&system
    a     =  4.23342e+00
    ibrav = 0
    nat   = 34
    ntyp  = 2
    ecutwfc = 40.0,
    ecutrho = 400.0,
    input_dft='LDA',
    occupations='smearing',
    smearing='gaussian',
    degauss=0.01,
/
&electrons
    !electron_maxstep=100
    mixing_mode='local-TF'
    mixing_beta=0.05
    !diagonalization="cg"
    !conv_thr=1e-6
/
&ions
/
&cell
    !cell_factor=4
    !cell_dofree='ibrav'
/
ATOMIC_SPECIES
    C 12.011 C.pz-n-rrkjus_psl.0.1.UPF !ultrasoft potential
    H  1.00784  H.pz-rrkjus_psl.0.1.UPF
CELL_PARAMETERS (alat)
   1.175521435   0.000018190   0.004696665
  -0.587803211   1.018057304   0.000866627
   0.008582923   0.007617648   2.420019193

ATOMIC_POSITIONS (crystal)
C                0.0000103350       -0.0000349886        0.1834914782    0   0   1
C                0.0000781121        0.0000617817        0.4079420898    0   0   1
C               -0.0000269728       -0.0000285746        0.8638002720    0   0   1
C                0.1665936781        0.3332412164        0.1813327694    0   0   1
C                0.3334503899        0.1667495100        0.4102755345    0   0   1
C                0.1669153819        0.3336083037        0.8642712993    0   0   1
C                0.5000202892       -0.0000124941        0.1837175811    0   0   1
C                0.5000637502       -0.0000349021        0.4076923912    0   0   1
C                0.4999525836       -0.0000338038        0.8645291817    0   0   1
C                0.6665815388        0.3331916237        0.1814072071    0   0   1
C                0.8334778065        0.1667001027        0.4107956395    0   0   1
C                0.6667653842        0.3335354758        0.8650456914    0   0   1
C               -0.0000570340        0.4998769914        0.1835256114    0   0   1
C                0.0000018179        0.4998821890        0.4082121415    0   0   1
C                0.0000861706        0.5001359174        0.8629273233    0   0   1
C                0.1666620439        0.8332600102        0.1809690614    0   0   1
C                0.3332967204        0.6665118109        0.4103702833    0   0   1
C                0.1664690052        0.8331284092        0.8704572137    0   0   1
C                0.4999611106        0.4999332305        0.1839441334    0   0   1
C                0.4999663150        0.4998742005        0.4080976328    0   0   1
C                0.5001747689        0.5002874213        0.8708154118    0   0   1
C                0.6666525927        0.8332961220        0.1810031380    0   0   1
C                0.8333299930        0.6666145771        0.4101570224    0   0   1
C                0.6667883853        0.8335162829        0.8634849535    0   0   1
H                0.8836220124        1.2620165726        0.6883344344
H                0.7838031077        1.0784648123        0.6878782070
H                0.3028250070        0.7206708832        0.6657215215
H                0.3995937412        0.6181061397        0.6641453094
H                0.7583901244        0.6273515099        0.6680439296
H                0.5267397952        0.5103266324        0.6437618006
H                0.3030010196        0.0767722060        0.6646807574
H                0.3997459512        0.2763936235        0.6651466361
H               -0.0424932282        0.7305463415        0.6590685248
H                0.1920487398        0.8439767868        0.6402551855

K_POINTS {automatic}
    1 1 1 0 0 0 