&control
   title           = "1H2_absorption_C_strain" 
   calculation     = 'scf' 
   outdir          = '../../results/remote/1h2_abs_strain' 
   pseudo_dir      = '/home/edoardocabiati/.burai/.pseudopot' 
   prefix          = '1H2abs_C_strain' 
    tstress         = .true 
    tprnfor         = .true 
/
&system
    a     =  4.23342e+00
    ibrav = 0
    nat   = 24
    ntyp  = 1
    ecutwfc = 40.0,
    ecutrho = 400.0,
    input_dft='LDA',
    occupations='smearing',
    smearing='gaussian',
    degauss=0.01,
/
&electrons
    !electron_maxstep=100
    mixing_mode='local-TF'
    mixing_beta=0.05
    !diagonalization="cg"
    !conv_thr=1e-6
/
&ions
/
&cell
    !cell_factor=4
    !cell_dofree='ibrav'
/
ATOMIC_SPECIES
    C 12.011 C.pz-n-rrkjus_psl.0.1.UPF !ultrasoft potential
    H  1.00784  H.pz-rrkjus_psl.0.1.UPF
CELL_PARAMETERS (alat=  8.00000437)
   1.164278098   0.000466575  -0.005073696
  -0.581659575   1.007722321   0.000642255
  -0.007660086  -0.002500301   2.197246945

ATOMIC_POSITIONS (crystal)
C               -0.0008521592       -0.0000362919        0.1987562675
C                0.0012168163        0.0001629094        0.4378368856
C               -0.0005403525       -0.0000902411        0.8640290057
C                0.1659312123        0.3332911555        0.1923422866
C                0.3342400398        0.1667890965        0.4444683087
C                0.1661936927        0.3331475899        0.8554759235
C                0.4992581852       -0.0000182690        0.1954380185
C                0.5017058939        0.0002491804        0.4425149817
C                0.4994705941       -0.0001020625        0.8631624958
C                0.6660527978        0.3333094497        0.1926392801
C                0.8345299965        0.1667955789        0.4439680012
C                0.6662793911        0.3331636933        0.8548096043
C               -0.0009643577        0.4999132656        0.1926157179
C                0.0003290685        0.4999324579        0.4429839554
C               -0.0003957427        0.4997039556        0.8460327627
C                0.1659764706        0.8332998955        0.1923607810
C                0.3341182157        0.6667104682        0.4428567213
C                0.1662031426        0.8331439065        0.8553673857
C                0.4992382286        0.4999762695        0.1957051735
C                0.5015840270        0.5002312801        0.4420672485
C                0.4995028837        0.4999103885        0.8633043672
C                0.6659411375        0.8333527885        0.1960092583
C                0.8344492165        0.6667908559        0.4441188176
C                0.6662162206        0.8333415523        0.8701291656
K_POINTS automatic
    1 1 1 0 0 0 

