! NOTE THE MAJOR DIFFERENCE WITH RESPECT TO HYDROGEN ABSORPTION (1 MOLECULE):
! in this case, we need to perform a constrained optimization, i.e. the carbon atoms
! are not free to move along the xy plane -> introducing 2 molecules of H2 close together
! implicitly made favourable a conformation for the carbon layers in which the top plane shifted
! so to ABB stacking. This was not necessary for the single molecule simulation.


&control
   title           = "2H2_absorption_C" 
   restart_mode    = 'from_scratch'
   calculation     = 'vc-relax' 
   outdir          = '../../results/remote/2h2_abs' 
   pseudo_dir      = '/home/edoardocabiati/.burai/.pseudopot' 
   prefix          = '2H2abs_C' 
    tstress         = .true 
    tprnfor         = .true 
/
&system
    a     =  4.23342e+00
    c     =  8.40848e+00
    ibrav = 4
    nat   = 28
    ntyp  = 2
    ecutwfc = 40.0,
    ecutrho = 400.0,
    input_dft='LDA',
    occupations='smearing',
    smearing='gaussian',
    degauss=0.01,
/
&electrons
    !electron_maxstep=100
    mixing_mode='local-TF'
    mixing_beta=0.05
    !diagonalization="cg"
    !conv_thr=1e-6
/
&ions
/
&cell
    !cell_factor=4
    !cell_dofree='ibrav'
/
ATOMIC_SPECIES
    C 12.011 C.pz-n-rrkjus_psl.0.1.UPF !ultrasoft potential
    H  1.00784  H.pz-rrkjus_psl.0.1.UPF
ATOMIC_POSITIONS {crystal}
    C       0.000000   0.000000   0.190000 0 0 1
    C       0.000000   0.000000   0.430000 0 0 1
    C       0.000000   0.000000   0.862000 0 0 1
    C       0.166666   0.333333   0.190000 0 0 1
    C       0.333333   0.166666   0.430000 0 0 1
    C       0.166666   0.333333   0.862000 0 0 1
    C       0.500000   0.000000   0.190000 0 0 1
    C       0.500000   0.000000   0.430000 0 0 1
    C       0.500000   0.000000   0.862000 0 0 1
    C       0.666666   0.333333   0.190000 0 0 1
    C       0.833333   0.166666   0.430000 0 0 1
    C       0.666666   0.333333   0.862000 0 0 1
    C       0.000000   0.500000   0.190000 0 0 1
    C       0.000000   0.500000   0.430000 0 0 1
    C       0.000000   0.500000   0.862000 0 0 1
    C       0.166666   0.833333   0.190000 0 0 1
    C       0.333333   0.666666   0.430000 0 0 1
    C       0.166666   0.833333   0.862000 0 0 1
    C       0.500000   0.500000   0.190000 0 0 1
    C       0.500000   0.500000   0.430000 0 0 1
    C       0.500000   0.500000   0.862000 0 0 1
    C       0.666666   0.833333   0.190000 0 0 1
    C       0.833333   0.666666   0.430000 0 0 1
    C       0.666666   0.833333   0.862000 0 0 1
    H       0.900000   1.131000   0.680000
    H       0.773000   1.188497   0.670000
    H       0.265000   0.680000   0.670000
    H       0.395000   0.628000   0.680000
K_POINTS {automatic}
    1 1 1 0 0 0 


    

