! NOTE THE MAJOR DIFFERENCE WITH RESPECT TO HYDROGEN ABSORPTION (1 MOLECULE):
! in this case, we need to perform a constrained optimization, i.e. the carbon atoms
! are not free to move along the xy plane -> introducing 2 molecules of H2 close together
! implicitly made favourable a conformation for the carbon layers in which the top plane shifted
! so to ABB stacking. This was not necessary for the single molecule simulation.


&control
   title           = "9H2_absorption_C" 
   restart_mode    = 'from_scratch'
   calculation     = 'vc-relax' 
   outdir          = '../results/remote/9h2_abs' 
   pseudo_dir      = '/home/edoardocabiati/.burai/.pseudopot' 
   prefix          = '9H2abs_C' 
    tstress         = .true 
    tprnfor         = .true 
/
&system
    a     =  4.23342e+00
    ibrav = 0
    nat   = 42
    ntyp  = 2
    ecutwfc = 40.0,
    ecutrho = 400.0,
    input_dft='LDA',
    occupations='smearing',
    smearing='gaussian',
    degauss=0.01,
/
&electrons
    !electron_maxstep=100
    mixing_mode='local-TF'
    mixing_beta=0.05
    !diagonalization="cg"
    !conv_thr=1e-6
/
&ions
/
&cell
    !cell_factor=4
    !cell_dofree='ibrav'
/
ATOMIC_SPECIES
    C 12.011 C.pz-n-rrkjus_psl.0.1.UPF !ultrasoft potential
    H  1.00784  H.pz-rrkjus_psl.0.1.UPF
CELL_PARAMETERS (alat=  8.00000437)
   1.172003499  -0.000040608  -0.003106178
  -0.586028141   1.015087381   0.001689830
   0.006692282   0.008333422   2.992787393

ATOMIC_POSITIONS (crystal)
C               -0.0002284701       -0.0004400400        0.1731839568    0   0   1
C               -0.0000591222       -0.0002095836        0.3574201275    0   0   1
C                0.0000811009       -0.0003139946        0.9015260806    0   0   1
C                0.1665251581        0.3330672554        0.1715402647    0   0   1
C                0.3336571410        0.1666164653        0.3585103781    0   0   1
C                0.1668783403        0.3335237703        0.9011551956    0   0   1
C                0.4997508060       -0.0003494388        0.1733302217    0   0   1
C                0.5002741273       -0.0002003977        0.3572451297    0   0   1
C                0.5003588705       -0.0000575523        0.9017345566    0   0   1
C                0.6666066886        0.3329905254        0.1715933839    0   0   1
C                0.8331670814        0.1662910646        0.3588468734    0   0   1
C                0.6669691814        0.3334455841        0.9013403828    0   0   1
C               -0.0003290102        0.4994188948        0.1728574042    0   0   1
C                0.0003773211        0.4999533363        0.3574241790    0   0   1
C                0.0011338651        0.5008205156        0.9007194298    0   0   1
C                0.1663302154        0.8327014414        0.1714642100    0   0   1
C                0.3338499446        0.6667400733        0.3591942327    0   0   1
C                0.1677607291        0.8338329115        0.9010875489    0   0   1
C                0.5002041656        0.4997983776        0.1737692853    0   0   1
C                0.5005838970        0.5002787513        0.3567129198    0   0   1
C                0.4999113309        0.4999196436        0.9017021851    0   0   1
C                0.6663799544        0.8330226357        0.1721443135    0   0   1
C                0.8337691671        0.6666531188        0.3590045538    0   0   1
C                0.6667414928        0.8329745009        0.9022008249    0   0   1
H                0.8245291692        1.2996407561        0.6847822188
H                0.5848639706        1.1087777530        0.6871880683
H                0.5365942454        0.8707951161        0.6943145181
H                0.6721329383        0.5793100354        0.6903513064
H                0.8662702816        0.5309588745        0.6852873496
H                0.4392534756        0.3907115118        0.6860753151
H                0.1497059323       -0.0402878228        0.6844108190
H                0.3915516382        0.1486862895        0.6858718655
H                0.1057931054        0.7239358747        0.6844287161
H                0.2975097431        0.6789527290        0.6893541013
H                0.9571237770        1.0043384481        0.6882053245
H                0.7451232629        0.8363535330        0.5404793281
H                0.0153610977        0.2455981794        0.6850102623
H                0.2470256807        0.4365173130        0.6853978395
H                0.7201429872        0.8171107641        0.6961872221
H                0.5738306861        0.8053622518        0.5390373757
H                0.7153622518        0.4238306861        0.5390373757
H                0.8171107641        0.5901429872        0.5361872221


K_POINTS {automatic}
    1 1 1 0 0 0 