! NOTE THE MAJOR DIFFERENCE WITH RESPECT TO HYDROGEN ABSORPTION (1 MOLECULE):
! in this case, we need to perform a constrained optimization, i.e. the carbon atoms
! are not free to move along the xy plane -> introducing 2 molecules of H2 close together
! implicitly made favourable a conformation for the carbon layers in which the top plane shifted
! so to ABB stacking. This was not necessary for the single molecule simulation.


&control
   title           = "7H2_absorption_C" 
   restart_mode    = 'from_scratch'
   calculation     = 'vc-relax' 
   outdir          = '../results/7h2_abs' 
   pseudo_dir      = '/home/edoardocabiati/.burai/.pseudopot' 
   prefix          = '7H2abs_C' 
    tstress         = .true 
    tprnfor         = .true 
/
&system
    a     =  4.23342e+00
    ibrav = 0
    nat   = 38
    ntyp  = 2
    ecutwfc = 40.0,
    ecutrho = 400.0,
    input_dft='LDA',
    occupations='smearing',
    smearing='gaussian',
    degauss=0.01,
/
&electrons
    !electron_maxstep=100
    mixing_mode='local-TF'
    mixing_beta=0.05
    !diagonalization="cg"
    !conv_thr=1e-6
/
&ions
/
&cell
    !cell_factor=4
    !cell_dofree='ibrav'
/
ATOMIC_SPECIES
    C 12.011 C.pz-n-rrkjus_psl.0.1.UPF !ultrasoft potential
    H  1.00784  H.pz-rrkjus_psl.0.1.UPF
CELL_PARAMETERS (alat)
   1.172208494   0.000012898  -0.000224834
  -0.586052334   1.015107478   0.000211260
   0.001425864   0.000443283   2.568655800

ATOMIC_POSITIONS (crystal)
C               -0.0001114488       -0.0000988711        0.1919018783    0   0   1
C                0.0001602543        0.0001427578        0.4025818627    0   0   1
C               -0.0004150283       -0.0005147219        0.8863837775    0   0   1
C                0.1665783875        0.3333475432        0.1895224381    0   0   1
C                0.3334801438        0.1667355923        0.4051092101    0   0   1
C                0.1665457629        0.3333879641        0.8867553258    0   0   1
C                0.5000895170        0.0001554927        0.1916806719    0   0   1
C                0.5001202304       -0.0000510094        0.4028279289    0   0   1
C                0.4998971535       -0.0002445988        0.8867279774    0   0   1
C                0.6666953881        0.3333152235        0.1895400976    0   0   1
C                0.8334457176        0.1667117845        0.4049343528    0   0   1
C                0.6665691176        0.3332542341        0.8871617005    0   0   1
C                0.0000094340        0.4999162647        0.1917022308    0   0   1
C                0.0001986367        0.5000611876        0.4028160265    0   0   1
C                0.0000836829        0.5001863696        0.8867946211    0   0   1
C                0.1666441249        0.8332075394        0.1895166104    0   0   1
C                0.3335491309        0.6667738027        0.4049665172    0   0   1
C                0.1666807407        0.8332112846        0.8867882471    0   0   1
C                0.4999386090        0.4999180306        0.1918394422    0   0   1
C                0.5002718175        0.5002412148        0.4026981420    0   0   1
C                0.4999241067        0.5000751271        0.8867386595    0   0   1
C                0.6666698533        0.8334703447        0.1894485531    0   0   1
C                0.8335532474        0.6666858427        0.4050218424    0   0   1
C                0.6663826358        0.8329601415        0.8866797426    0   0   1
H                0.8407118018        1.3100621964        0.6455462815
H                0.5978305574        1.1182276693        0.6453916922
H                0.5510862295        0.8826125211        0.6434558616
H                0.6861515306        0.5914321212        0.6457630009
H                0.8785292301        0.5411181733        0.6458132245
H                0.4540852656        0.4016076685        0.6461583171
H                0.1663686782       -0.0317700731        0.6435573619
H                0.4063880028        0.1604096022        0.6477705918
H                0.1173622797        0.7283881796        0.6435676958
H                0.3127969652        0.6892843441        0.6470695566
H                0.9794891780        1.0178414757        0.6414813762
H                0.7399340976        0.8316272450        0.6410097557
H                0.0280498948        0.2565330701        0.6427383854
H                0.2640300736        0.4486070231        0.6441442481

K_POINTS {automatic}
    1 1 1 0 0 0 